NAME : eil76.581954.tour
COMMENT : Cost = 195720_581954
COMMENT : Found by LKH [Keld Helsgaun] Thu Jan 19 20:28:36 2017
TYPE : TOUR
DIMENSION : 78
TOUR_SECTION
1
33
6
51
17
40
12
72
58
10
38
65
66
11
59
14
53
35
7
52
27
45
29
48
30
74
28
62
77
73
2
68
4
75
76
26
67
34
46
8
19
54
13
57
15
5
37
20
70
60
71
69
36
47
21
61
22
78
43
42
64
41
56
23
49
24
18
50
25
55
31
39
9
32
44
3
16
63
-1
EOF
